(set-option :print-success false)
(set-logic QF_UF)
(declare-sort x84 0)
(declare-sort x60 0)
(declare-fun x7 () x60)
(declare-fun x71 () x60)
(declare-fun x48 () x60)
(declare-fun x95 () x60)
(declare-fun x3 () x60)
(declare-fun x39 (x60 x60) x60)
(declare-fun x37 (x60 x60) x60)
(assert (let ((x151 (x39 x71 x71)) (x34 (x39 x48 x95)) (x110 (x39 x48 x3)) (x17 (x39 x3 x3)) (x139 (x39 x3 x7)) (x93 (x39 x3 x48)) (x134 (x39 x48 x7)) (x126 (x39 x7 x48)) (x75 (x39 x7 x71)) (x58 (x39 x48 x48)) (x40 (x39 x71 x3)) (x47 (x39 x7 x7)) (x147 (x39 x71 x95)) (x125 (x39 x95 x95)) (x2 (x39 x95 x48)) (x82 (x39 x95 x7)) (x101 (x39 x3 x71)) (x96 (x39 x7 x3)) (x122 (x39 x3 x95)) (x136 (x39 x48 x71)) (x16 (x39 x71 x48)) (x90 (x39 x7 x95)) (x87 (x39 x71 x7)) (x146 (x39 x95 x71)) (x80 (x39 x95 x3))) (and (or (or (or (or (= x71 (x39 x101 x101)) (= (x39 x139 x139) x7)) (= x95 (x39 x122 x122))) (= x48 (x39 x93 x93))) (= (x39 x17 x17) x3)) (and (and (and (or (= x3 (x39 x96 x96)) (or (or (or (= x7 (x39 x47 x47)) (= (x39 x75 x75) x71)) (= x95 (x39 x90 x90))) (= x48 (x39 x126 x126)))) (or (or (or (= (x39 x147 x147) x95) (or (= (x39 x151 x151) x71) (= (x39 x87 x87) x7))) (= x48 (x39 x16 x16))) (= x3 (x39 x40 x40)))) (or (= x3 (x39 x80 x80)) (or (or (or (= x71 (x39 x146 x146)) (= (x39 x82 x82) x7)) (= x95 (x39 x125 x125))) (= (x39 x2 x2) x48)))) (or (= x3 (x39 x110 x110)) (or (or (or (= (x39 x136 x136) x71) (= x7 (x39 x134 x134))) (= x95 (x39 x34 x34))) (= (x39 x58 x58) x48)))))))
(assert (or (and (not (= x3 (x39 (x39 x3 x3) x3))) (and (and (and (not (= (x39 (x39 x3 x71) x3) x71)) (not (= x7 (x39 (x39 x3 x7) x3)))) (not (= x95 (x39 (x39 x3 x95) x3)))) (not (= x48 (x39 (x39 x3 x48) x3))))) (or (and (and (not (= (x39 (x39 x48 x48) x48) x48)) (and (and (not (= (x39 (x39 x48 x71) x48) x71)) (not (= x7 (x39 (x39 x48 x7) x48)))) (not (= x95 (x39 (x39 x48 x95) x48))))) (not (= (x39 (x39 x48 x3) x48) x3))) (or (or (and (and (not (= x48 (x39 (x39 x7 x48) x7))) (and (not (= (x39 (x39 x7 x95) x7) x95)) (and (not (= x7 (x39 (x39 x7 x7) x7))) (not (= (x39 (x39 x7 x71) x7) x71))))) (not (= x3 (x39 (x39 x7 x3) x7)))) (and (not (= x3 (x39 (x39 x71 x3) x71))) (and (and (and (not (= (x39 (x39 x71 x71) x71) x71)) (not (= x7 (x39 (x39 x71 x7) x71)))) (not (= x95 (x39 (x39 x71 x95) x71)))) (not (= (x39 (x39 x71 x48) x71) x48))))) (and (not (= x3 (x39 (x39 x95 x3) x95))) (and (not (= x48 (x39 (x39 x95 x48) x95))) (and (not (= (x39 (x39 x95 x95) x95) x95)) (and (not (= (x39 (x39 x95 x71) x95) x71)) (not (= x7 (x39 (x39 x95 x7) x95)))))))))))
(assert (and (or (not (= x3 (x39 x3 (x39 x3 x3)))) (or (or (or (not (= (x39 x3 (x39 x3 x71)) x71)) (not (= (x39 x3 (x39 x3 x7)) x7))) (not (= x95 (x39 x3 (x39 x3 x95))))) (not (= x48 (x39 x3 (x39 x3 x48)))))) (and (or (or (or (not (= x95 (x39 x48 (x39 x48 x95)))) (or (not (= (x39 x48 (x39 x48 x71)) x71)) (not (= x7 (x39 x48 (x39 x48 x7)))))) (not (= x48 (x39 x48 (x39 x48 x48))))) (not (= x3 (x39 x48 (x39 x48 x3))))) (and (and (or (not (= x3 (x39 x7 (x39 x7 x3)))) (or (or (or (not (= (x39 x7 (x39 x7 x71)) x71)) (not (= x7 (x39 x7 (x39 x7 x7))))) (not (= x95 (x39 x7 (x39 x7 x95))))) (not (= x48 (x39 x7 (x39 x7 x48)))))) (or (not (= x3 (x39 x71 (x39 x71 x3)))) (or (not (= x48 (x39 x71 (x39 x71 x48)))) (or (or (not (= (x39 x71 (x39 x71 x7)) x7)) (not (= x71 (x39 x71 (x39 x71 x71))))) (not (= (x39 x71 (x39 x71 x95)) x95)))))) (or (not (= (x39 x95 (x39 x95 x3)) x3)) (or (or (or (not (= (x39 x95 (x39 x95 x71)) x71)) (not (= (x39 x95 (x39 x95 x7)) x7))) (not (= (x39 x95 (x39 x95 x95)) x95))) (not (= x48 (x39 x95 (x39 x95 x48))))))))))
(assert (let ((x96 (x39 x3 x7)) (x80 (x39 x3 x95)) (x75 (x39 x71 x7)) (x82 (x39 x7 x95)) (x134 (x39 x7 x48)) (x126 (x39 x48 x7)) (x16 (x39 x48 x71)) (x58 (x39 x48 x48)) (x110 (x39 x3 x48)) (x151 (x39 x71 x71)) (x101 (x39 x71 x3)) (x87 (x39 x7 x71)) (x136 (x39 x71 x48)) (x146 (x39 x71 x95)) (x139 (x39 x7 x3)) (x122 (x39 x95 x3)) (x90 (x39 x95 x7)) (x125 (x39 x95 x95)) (x2 (x39 x48 x95)) (x34 (x39 x95 x48)) (x93 (x39 x48 x3)) (x17 (x39 x3 x3)) (x40 (x39 x3 x71)) (x147 (x39 x95 x71)) (x47 (x39 x7 x7))) (and (and (and (not (= x17 x93)) (and (and (and (not (= x17 x139)) (and (and (and (and (and (not (= x139 x101)) (not (= x101 x122))) (not (= x101 x93))) (not (= x17 x101))) (not (= x139 x122))) (not (= x139 x93)))) (not (= x93 x122))) (not (= x122 x17)))) (and (and (and (and (and (and (and (and (not (= x136 x110)) (and (not (= x58 x136)) (and (not (= x34 x136)) (not (= x136 x134))))) (not (= x34 x134))) (not (= x134 x58))) (not (= x110 x134))) (not (= x34 x58))) (not (= x110 x34))) (not (= x58 x110))) (and (and (and (not (= x96 x126)) (and (not (= x96 x90)) (and (and (not (= x96 x47)) (and (and (and (and (and (not (= x90 x75)) (not (= x47 x75))) (not (= x126 x75))) (not (= x75 x96))) (not (= x47 x90))) (not (= x126 x47)))) (not (= x126 x90))))) (and (not (= x40 x16)) (and (and (not (= x16 x147)) (and (not (= x40 x87)) (and (not (= x87 x16)) (and (and (not (= x40 x151)) (and (and (not (= x87 x151)) (not (= x147 x151))) (not (= x16 x151)))) (not (= x147 x87)))))) (not (= x147 x40))))) (and (and (and (not (= x2 x125)) (and (and (not (= x82 x2)) (and (and (not (= x80 x146)) (and (not (= x2 x146)) (and (not (= x125 x146)) (not (= x82 x146))))) (not (= x82 x125)))) (not (= x80 x82)))) (not (= x125 x80))) (not (= x2 x80)))))) (and (and (and (not (= x58 x93)) (and (not (= x2 x93)) (and (and (and (not (= x126 x58)) (and (not (= x126 x2)) (and (not (= x93 x16)) (and (not (= x58 x16)) (and (not (= x16 x126)) (not (= x2 x16))))))) (not (= x126 x93))) (not (= x2 x58))))) (and (and (and (not (= x139 x134)) (and (not (= x82 x139)) (and (and (and (not (= x47 x134)) (and (and (and (and (not (= x87 x82)) (not (= x87 x47))) (not (= x87 x134))) (not (= x139 x87))) (not (= x82 x47)))) (not (= x139 x47))) (not (= x134 x82))))) (and (and (not (= x146 x101)) (and (not (= x146 x136)) (and (and (and (and (and (not (= x151 x136)) (and (not (= x146 x151)) (not (= x151 x75)))) (not (= x151 x101))) (not (= x75 x146))) (not (= x75 x136))) (not (= x101 x75))))) (not (= x136 x101)))) (and (and (and (not (= x34 x125)) (and (not (= x90 x122)) (and (and (and (and (and (not (= x147 x90)) (not (= x147 x125))) (not (= x147 x34))) (not (= x147 x122))) (not (= x90 x125))) (not (= x90 x34))))) (not (= x125 x122))) (not (= x122 x34))))) (and (not (= x17 x110)) (and (not (= x80 x17)) (and (and (and (not (= x110 x96)) (and (and (and (not (= x110 x40)) (and (not (= x80 x40)) (not (= x40 x96)))) (not (= x40 x17))) (not (= x80 x96)))) (not (= x96 x17))) (not (= x80 x110)))))))))
(assert (and (and (and (= (x39 x95 x71) x7) (= x71 (x39 x95 x95))) (= x48 (x39 x71 x95))) (= x3 (x39 x7 x95))))
(assert (or (and (and (not (= x3 (x39 x48 (x39 x3 x48)))) (and (and (not (= (x39 x7 (x39 x3 x7)) x3)) (not (= (x39 x71 (x39 x3 x71)) x3))) (not (= x3 (x39 x95 (x39 x3 x95)))))) (not (= x3 (x39 x3 (x39 x3 x3))))) (or (and (not (= (x39 x3 (x39 x48 x3)) x48)) (and (not (= x48 (x39 x48 (x39 x48 x48)))) (and (and (not (= (x39 x71 (x39 x48 x71)) x48)) (not (= x48 (x39 x7 (x39 x48 x7))))) (not (= (x39 x95 (x39 x48 x95)) x48))))) (or (and (not (= x95 (x39 x3 (x39 x95 x3)))) (and (not (= (x39 x48 (x39 x95 x48)) x95)) (and (and (not (= x95 (x39 x7 (x39 x95 x7)))) (not (= (x39 x71 (x39 x95 x71)) x95))) (not (= (x39 x95 (x39 x95 x95)) x95))))) (or (and (not (= x71 (x39 x3 (x39 x71 x3)))) (and (not (= x71 (x39 x48 (x39 x71 x48)))) (and (not (= (x39 x95 (x39 x71 x95)) x71)) (and (not (= x71 (x39 x7 (x39 x71 x7)))) (not (= (x39 x71 (x39 x71 x71)) x71)))))) (and (not (= x7 (x39 x3 (x39 x7 x3)))) (and (and (and (not (= x7 (x39 x7 (x39 x7 x7)))) (not (= x7 (x39 x71 (x39 x7 x71))))) (not (= (x39 x95 (x39 x7 x95)) x7))) (not (= (x39 x48 (x39 x7 x48)) x7)))))))))
(assert (and (not (= x3 x48)) (and (and (and (and (and (not (= x7 x95)) (and (not (= x3 x71)) (and (and (not (= x95 x71)) (not (= x71 x7))) (not (= x71 x48))))) (not (= x7 x48))) (not (= x7 x3))) (not (= x95 x48))) (not (= x3 x95)))))
(assert (or (= (x39 x3 x3) x3) (or (= (x39 x48 x48) x48) (or (= (x39 x95 x95) x95) (or (= x7 (x39 x7 x7)) (= (x39 x71 x71) x71))))))
(assert (not (and (= (x39 x3 x3) x71) (and (and (and (= x3 (x39 x3 x7)) (and (and (= (x39 x48 x3) x95) (and (= (x39 x48 x48) x71) (and (= x7 (x39 x48 x95)) (and (and (= (x39 x48 x71) x3) (and (= x3 (x39 x95 x3)) (and (and (and (and (= (x39 x95 x71) x7) (and (and (and (and (and (= (x39 x7 x71) x71) (and (and (and (and (= x71 (x39 x71 x7)) (= (x39 x71 x71) x95)) (= x48 (x39 x71 x95))) (= x3 (x39 x71 x48))) (= x7 (x39 x71 x3)))) (= (x39 x7 x7) x7)) (= (x39 x7 x95) x3)) (= x95 (x39 x7 x48))) (= (x39 x7 x3) x48))) (= (x39 x95 x7) x95)) (= x71 (x39 x95 x95))) (= (x39 x95 x48) x48)))) (= (x39 x48 x7) x48))))) (= x48 (x39 x3 x71)))) (= (x39 x3 x95) x95)) (= (x39 x3 x48) x7)))))
(assert (let ((x16 (x39 x48 x48)) (x40 (x39 x3 x3)) (x147 (x39 x95 x95)) (x87 (x39 x7 x7)) (x151 (x39 x71 x71))) (or (and (not (= x3 x40)) (and (not (= x16 x3)) (and (and (not (= x151 x3)) (not (= x3 x87))) (not (= x3 x147))))) (or (or (and (not (= x95 x40)) (and (and (and (not (= x95 x151)) (not (= x87 x95))) (not (= x95 x147))) (not (= x95 x16)))) (or (and (not (= x40 x7)) (and (and (not (= x147 x7)) (and (not (= x87 x7)) (not (= x7 x151)))) (not (= x16 x7)))) (and (and (and (not (= x71 x147)) (and (not (= x71 x151)) (not (= x87 x71)))) (not (= x16 x71))) (not (= x71 x40))))) (and (not (= x48 x40)) (and (not (= x16 x48)) (and (not (= x48 x147)) (and (not (= x151 x48)) (not (= x48 x87))))))))))
(assert (or (and (= x3 (x39 (x39 x3 x3) x3)) (and (and (and (= (x39 (x39 x7 x3) x3) x7) (= x71 (x39 (x39 x71 x3) x3))) (= x95 (x39 (x39 x95 x3) x3))) (= x48 (x39 (x39 x48 x3) x3)))) (or (and (= (x39 (x39 x3 x48) x48) x3) (and (= (x39 (x39 x48 x48) x48) x48) (and (= x95 (x39 (x39 x95 x48) x48)) (and (= x71 (x39 (x39 x71 x48) x48)) (= (x39 (x39 x7 x48) x48) x7))))) (or (and (= (x39 (x39 x3 x95) x95) x3) (and (and (and (= x71 (x39 (x39 x71 x95) x95)) (= x7 (x39 (x39 x7 x95) x95))) (= x95 (x39 (x39 x95 x95) x95))) (= x48 (x39 (x39 x48 x95) x95)))) (or (and (and (and (= x95 (x39 (x39 x95 x71) x71)) (and (= x7 (x39 (x39 x7 x71) x71)) (= (x39 (x39 x71 x71) x71) x71))) (= x48 (x39 (x39 x48 x71) x71))) (= (x39 (x39 x3 x71) x71) x3)) (and (= (x39 (x39 x3 x7) x7) x3) (and (and (= x95 (x39 (x39 x95 x7) x7)) (and (= x7 (x39 (x39 x7 x7) x7)) (= (x39 (x39 x71 x7) x7) x71))) (= (x39 (x39 x48 x7) x7) x48))))))))
(assert (let ((x139 (x39 x7 x3)) (x18 (x39 x3 x7)) (x154 (x39 x3 x48)) (x108 (x39 x3 x3)) (x40 (x39 x71 x48)) (x75 (x39 x71 x3)) (x32 (x39 x95 x95)) (x126 (x39 x95 x71)) (x147 (x39 x71 x7)) (x110 (x39 x7 x95)) (x87 (x39 x71 x71)) (x101 (x39 x7 x48)) (x16 (x39 x71 x95)) (x96 (x39 x48 x71)) (x127 (x39 x48 x48)) (x99 (x39 x48 x3)) (x102 (x39 x48 x95)) (x149 (x39 x3 x95)) (x23 (x39 x95 x3)) (x90 (x39 x7 x71)) (x146 (x39 x3 x71)) (x22 (x39 x48 x7)) (x58 (x39 x7 x7)) (x70 (x39 x95 x48)) (x17 (x39 x95 x7))) (let ((x118 (= x48 x58)) (x26 (= x3 x70)) (x14 (= x48 x32)) (x135 (= x3 x147)) (x136 (= x147 x71)) (x137 (= x146 x3)) (x156 (= x139 x95)) (x72 (= x71 x110)) (x130 (= x126 x95)) (x68 (= x22 x71)) (x5 (= x139 x48)) (x65 (= x7 x108)) (x98 (= x71 x99)) (x145 (= x23 x95)) (x124 (= x96 x7)) (x97 (= x48 x110)) (x38 (= x48 x70)) (x150 (= x48 x149)) (x111 (= x3 x127)) (x11 (= x95 x99)) (x4 (= x7 x127)) (x61 (= x7 x32)) (x15 (= x3 x101)) (x21 (= x48 x23)) (x152 (= x110 x7)) (x155 (= x70 x7)) (x36 (= x7 x154)) (x51 (= x7 x139)) (x56 (= x101 x95)) (x93 (= x58 x7)) (x59 (= x40 x71)) (x86 (= x23 x71)) (x10 (= x95 x58)) (x106 (= x101 x48)) (x138 (= x22 x48)) (x148 (= x75 x48)) (x30 (= x17 x3)) (x67 (= x71 x102)) (x8 (= x16 x71)) (x123 (= x7 x149)) (x24 (= x70 x71)) (x158 (= x99 x7)) (x151 (= x71 x87)) (x103 (= x18 x7)) (x144 (= x99 x3)) (x153 (= x75 x7)) (x46 (= x71 x108)) (x159 (= x71 x126)) (x69 (= x48 x17)) (x35 (= x18 x3)) (x133 (= x110 x3)) (x131 (= x7 x23)) (x117 (= x95 x16)) (x142 (= x32 x3)) (x120 (= x95 x102)) (x43 (= x127 x95)) (x53 (= x48 x127)) (x80 (= x90 x71)) (x89 (= x48 x40)) (x27 (= x70 x95)) (x134 (= x58 x71)) (x19 (= x149 x71)) (x57 (= x110 x95)) (x88 (= x146 x7)) (x104 (= x17 x71)) (x42 (= x147 x95)) (x55 (= x71 x127)) (x44 (= x22 x95)) (x82 (= x87 x95)) (x112 (= x139 x3)) (x13 (= x16 x3)) (x54 (= x48 x108)) (x125 (= x48 x87)) (x157 (= x40 x95)) (x41 (= x71 x146)) (x113 (= x96 x48)) (x100 (= x95 x18)) (x114 (= x154 x71)) (x122 (= x7 x147)) (x64 (= x71 x101)) (x121 (= x22 x7)) (x63 (= x48 x102)) (x143 (= x95 x90)) (x115 (= x95 x96)) (x109 (= x18 x48)) (x132 (= x102 x3)) (x2 (= x3 x87)) (x12 (= x71 x18)) (x9 (= x3 x96)) (x49 (= x154 x95)) (x73 (= x3 x23)) (x50 (= x48 x146)) (x107 (= x7 x17)) (x116 (= x95 x75)) (x85 (= x126 x7)) (x77 (= x32 x71)) (x28 (= x75 x3)) (x92 (= x16 x7)) (x119 (= x126 x48)) (x47 (= x7 x87)) (x31 (= x139 x71)) (x129 (= x16 x48)) (x78 (= x3 x90)) (x81 (= x71 x75)) (x141 (= x32 x95)) (x33 (= x3 x22)) (x83 (= x7 x102)) (x52 (= x40 x7)) (x128 (= x154 x48)) (x66 (= x3 x108)) (x1 (= x3 x154)) (x20 (= x108 x95)) (x140 (= x48 x90)) (x94 (= x95 x146)) (x45 (= x95 x149)) (x105 (= x48 x99)) (x34 (= x7 x90)) (x76 (= x17 x95)) (x29 (= x58 x3)) (x25 (= x3 x149)) (x6 (= x126 x3)) (x62 (= x71 x96)) (x74 (= x40 x3)) (x79 (= x101 x7)) (x91 (= x147 x48))) (and (and (and (and (and (and (and (or (or (or x119 (or x140 x125)) x113) x50) (or (or (or x129 (or x91 x125)) x89) x148)) (and (and (or (or x157 (or (or x42 x82) x117)) x116) (or (or x115 (or (or x82 x143) x130)) x94)) (and (and (or x153 (or x52 (or (or x47 x122) x92))) (or (or (or (or x47 x34) x85) x124) x88)) (and (or (or x62 (or x159 (or x80 x151))) x41) (or (or x59 (or (or x136 x151) x8)) x81))))) (and (or (or (or x13 (or x2 x135)) x74) x28) (or (or x9 (or (or x78 x2) x6)) x137))) (and (and (or (or x15 (or x133 (or x29 x78))) x112) (or (or (or (or x135 x29) x30) x33) x35)) (and (and (and (or (or x44 (or (or x10 x42) x76)) x100) (or (or (or (or x10 x143) x57) x56) x156)) (and (and (or (or (or x104 (or x136 x134)) x68) x12) (or (or (or x72 (or x80 x134)) x64) x31)) (and (or x51 (or x79 (or x152 (or x93 x34)))) (or x103 (or (or x107 (or x93 x122)) x121))))) (and (or x5 (or x106 (or (or x140 x118) x97))) (or x109 (or (or (or x118 x91) x69) x138)))))) (and (and (or (or (or x142 (or x133 x13)) x132) x25) (or (or x26 (or (or x30 x6) x142)) x73)) (and (and (and (and (or (or x83 (or (or x92 x152) x61)) x123) (or (or (or x61 (or x85 x107)) x155) x131)) (and (or x19 (or (or (or x8 x72) x77) x67)) (or (or (or (or x104 x159) x77) x24) x86))) (and (or x145 (or (or (or x76 x130) x141) x27)) (or (or x120 (or (or x117 x57) x141)) x45))) (and (or (or (or (or x129 x97) x14) x63) x150) (or (or (or x14 (or x119 x69)) x38) x21))))) (and (and (or (or (or x132 (or x33 x9)) x111) x144) (or x1 (or x111 (or (or x74 x15) x26)))) (and (and (and (or x11 (or x43 (or x120 (or x44 x115)))) (or (or (or x27 (or x157 x56)) x43) x49)) (and (and (or x158 (or x4 (or (or x124 x121) x83))) (or (or x4 (or x155 (or x79 x52))) x36)) (and (or x98 (or x55 (or x67 (or x62 x68)))) (or x114 (or (or x24 (or x59 x64)) x55))))) (and (or (or (or x63 (or x138 x113)) x53) x105) (or x128 (or x53 (or x38 (or x89 x106)))))))) (and (and (or x66 (or (or (or x112 x28) x73) x144)) (or x66 (or x1 (or (or x137 x35) x25)))) (and (and (or (or (or (or x50 x109) x150) x128) x54) (or x54 (or x105 (or (or x148 x5) x21)))) (and (and (or x20 (or (or (or x156 x116) x145) x11)) (or (or (or (or x100 x94) x45) x49) x20)) (and (and (or x46 (or (or (or x81 x31) x86) x98)) (or x46 (or (or x19 (or x12 x41)) x114))) (and (or (or (or (or x51 x153) x131) x158) x65) (or (or x36 (or x123 (or x88 x103))) x65))))))))))
(assert (let ((x47 (x39 x7 x7)) (x151 (x39 x71 x71)) (x101 (x39 x71 x3)) (x125 (x39 x95 x95)) (x122 (x39 x95 x3)) (x2 (x39 x48 x95)) (x75 (x39 x71 x7)) (x93 (x39 x48 x3)) (x139 (x39 x7 x3)) (x146 (x39 x71 x95)) (x17 (x39 x3 x3)) (x134 (x39 x7 x48)) (x34 (x39 x95 x48)) (x80 (x39 x3 x95)) (x110 (x39 x3 x48)) (x90 (x39 x95 x7)) (x82 (x39 x7 x95)) (x126 (x39 x48 x7)) (x40 (x39 x3 x71)) (x147 (x39 x95 x71)) (x87 (x39 x7 x71)) (x96 (x39 x3 x7)) (x58 (x39 x48 x48)) (x16 (x39 x48 x71)) (x136 (x39 x71 x48))) (or (and (not (= x3 (x39 x17 x17))) (and (and (and (not (= (x39 x139 x139) x7)) (not (= (x39 x101 x101) x71))) (not (= (x39 x122 x122) x95))) (not (= (x39 x93 x93) x48)))) (or (and (and (and (and (not (= (x39 x136 x136) x71)) (not (= (x39 x134 x134) x7))) (not (= x95 (x39 x34 x34)))) (not (= (x39 x58 x58) x48))) (not (= x3 (x39 x110 x110)))) (or (or (and (and (not (= x48 (x39 x126 x126))) (and (not (= (x39 x90 x90) x95)) (and (not (= (x39 x75 x75) x71)) (not (= (x39 x47 x47) x7))))) (not (= x3 (x39 x96 x96)))) (and (and (not (= x48 (x39 x16 x16))) (and (not (= x95 (x39 x147 x147))) (and (not (= (x39 x151 x151) x71)) (not (= x7 (x39 x87 x87)))))) (not (= x3 (x39 x40 x40))))) (and (and (not (= x48 (x39 x2 x2))) (and (and (not (= x7 (x39 x82 x82))) (not (= x71 (x39 x146 x146)))) (not (= (x39 x125 x125) x95)))) (not (= x3 (x39 x80 x80)))))))))
(assert (and (and (and (or (= x3 (x39 x3 (x39 x95 x3))) (or (or (= x95 (x39 x95 (x39 x95 x95))) (or (= (x39 x7 (x39 x95 x7)) x7) (= (x39 x71 (x39 x95 x71)) x71))) (= x48 (x39 x48 (x39 x95 x48))))) (and (or (or (or (or (= (x39 x7 (x39 x7 x7)) x7) (= (x39 x71 (x39 x7 x71)) x71)) (= x95 (x39 x95 (x39 x7 x95)))) (= (x39 x48 (x39 x7 x48)) x48)) (= x3 (x39 x3 (x39 x7 x3)))) (or (= x3 (x39 x3 (x39 x71 x3))) (or (or (or (= x71 (x39 x71 (x39 x71 x71))) (= x7 (x39 x7 (x39 x71 x7)))) (= (x39 x95 (x39 x71 x95)) x95)) (= x48 (x39 x48 (x39 x71 x48))))))) (or (= x3 (x39 x3 (x39 x48 x3))) (or (= x48 (x39 x48 (x39 x48 x48))) (or (= (x39 x95 (x39 x48 x95)) x95) (or (= x7 (x39 x7 (x39 x48 x7))) (= x71 (x39 x71 (x39 x48 x71)))))))) (or (= x3 (x39 x3 (x39 x3 x3))) (or (= x48 (x39 x48 (x39 x3 x48))) (or (= x95 (x39 x95 (x39 x3 x95))) (or (= (x39 x7 (x39 x3 x7)) x7) (= x71 (x39 x71 (x39 x3 x71)))))))))
(assert (or (and (not (= (x39 x3 (x39 x3 x3)) x3)) (and (and (and (not (= x71 (x39 x3 (x39 x3 x71)))) (not (= (x39 x3 (x39 x3 x7)) x7))) (not (= (x39 x3 (x39 x3 x95)) x95))) (not (= (x39 x3 (x39 x3 x48)) x48)))) (or (or (and (not (= x3 (x39 x95 (x39 x95 x3)))) (and (and (and (not (= x7 (x39 x95 (x39 x95 x7)))) (not (= x71 (x39 x95 (x39 x95 x71))))) (not (= x95 (x39 x95 (x39 x95 x95))))) (not (= (x39 x95 (x39 x95 x48)) x48)))) (or (and (not (= (x39 x7 (x39 x7 x3)) x3)) (and (and (and (not (= x71 (x39 x7 (x39 x7 x71)))) (not (= (x39 x7 (x39 x7 x7)) x7))) (not (= (x39 x7 (x39 x7 x95)) x95))) (not (= x48 (x39 x7 (x39 x7 x48)))))) (and (and (and (not (= (x39 x71 (x39 x71 x95)) x95)) (and (not (= x7 (x39 x71 (x39 x71 x7)))) (not (= x71 (x39 x71 (x39 x71 x71)))))) (not (= (x39 x71 (x39 x71 x48)) x48))) (not (= (x39 x71 (x39 x71 x3)) x3))))) (and (and (not (= x48 (x39 x48 (x39 x48 x48)))) (and (not (= (x39 x48 (x39 x48 x95)) x95)) (and (not (= x7 (x39 x48 (x39 x48 x7)))) (not (= (x39 x48 (x39 x48 x71)) x71))))) (not (= x3 (x39 x48 (x39 x48 x3))))))))
(assert (let ((x82 (x39 x95 x7)) (x34 (x39 x48 x95)) (x90 (x39 x7 x95)) (x134 (x39 x48 x7)) (x110 (x39 x48 x3)) (x40 (x39 x71 x3)) (x96 (x39 x7 x3)) (x125 (x39 x95 x95)) (x101 (x39 x3 x71)) (x146 (x39 x95 x71)) (x16 (x39 x71 x48)) (x2 (x39 x95 x48)) (x58 (x39 x48 x48)) (x139 (x39 x3 x7)) (x136 (x39 x48 x71)) (x93 (x39 x3 x48)) (x80 (x39 x95 x3)) (x151 (x39 x71 x71)) (x75 (x39 x7 x71)) (x126 (x39 x7 x48)) (x122 (x39 x3 x95)) (x147 (x39 x71 x95)) (x47 (x39 x7 x7)) (x87 (x39 x71 x7)) (x17 (x39 x3 x3))) (and (and (and (and (and (and (and (and (or (or (or (= x151 x95) (or (= x151 x7) (= x151 x71))) (= x48 x151)) (= x151 x3)) (or (= x87 x3) (or (= x48 x87) (or (= x87 x95) (or (= x87 x71) (= x7 x87)))))) (or (or (or (= x147 x95) (or (= x147 x7) (= x71 x147))) (= x48 x147)) (= x3 x147))) (or (or (or (= x95 x16) (or (= x16 x71) (= x16 x7))) (= x16 x48)) (= x16 x3))) (or (= x40 x3) (or (or (= x95 x40) (or (= x7 x40) (= x71 x40))) (= x40 x48)))) (and (or (= x96 x3) (or (= x48 x96) (or (or (= x96 x7) (= x96 x71)) (= x95 x96)))) (and (and (or (or (= x48 x90) (or (= x95 x90) (or (= x90 x7) (= x71 x90)))) (= x3 x90)) (and (or (= x3 x47) (or (= x48 x47) (or (= x95 x47) (or (= x47 x71) (= x47 x7))))) (or (= x75 x3) (or (= x75 x48) (or (= x75 x95) (or (= x75 x71) (= x7 x75))))))) (or (or (= x48 x126) (or (= x95 x126) (or (= x7 x126) (= x71 x126)))) (= x126 x3))))) (and (or (or (or (= x95 x80) (or (= x71 x80) (= x80 x7))) (= x80 x48)) (= x3 x80)) (and (or (= x2 x3) (or (= x48 x2) (or (= x2 x95) (or (= x7 x2) (= x71 x2))))) (and (or (or (= x48 x125) (or (or (= x125 x7) (= x71 x125)) (= x125 x95))) (= x125 x3)) (and (or (or (or (or (= x82 x7) (= x82 x71)) (= x95 x82)) (= x82 x48)) (= x3 x82)) (or (= x3 x146) (or (or (= x146 x95) (or (= x7 x146) (= x146 x71))) (= x48 x146)))))))) (and (and (and (and (or (or (= x48 x134) (or (= x95 x134) (or (= x134 x71) (= x7 x134)))) (= x134 x3)) (or (or (= x48 x136) (or (= x136 x95) (or (= x136 x71) (= x136 x7)))) (= x3 x136))) (or (= x34 x3) (or (= x34 x48) (or (or (= x34 x7) (= x71 x34)) (= x95 x34))))) (or (= x58 x3) (or (or (or (= x58 x7) (= x58 x71)) (= x95 x58)) (= x58 x48)))) (or (= x110 x3) (or (or (= x95 x110) (or (= x110 x71) (= x7 x110))) (= x48 x110))))) (and (and (and (or (or (or (= x95 x122) (or (= x7 x122) (= x71 x122))) (= x48 x122)) (= x3 x122)) (and (or (or (= x48 x101) (or (= x101 x95) (or (= x101 x71) (= x101 x7)))) (= x3 x101)) (or (or (= x48 x139) (or (or (= x139 x71) (= x7 x139)) (= x95 x139))) (= x3 x139)))) (or (= x93 x3) (or (= x48 x93) (or (= x93 x95) (or (= x7 x93) (= x71 x93)))))) (or (= x17 x3) (or (or (or (= x7 x17) (= x17 x71)) (= x17 x95)) (= x48 x17)))))))
(assert (not (and (= x95 (x39 x3 x3)) (and (and (= x7 (x39 x3 x95)) (and (and (= x71 (x39 x3 x71)) (and (and (and (and (= (x39 x48 x7) x71) (and (and (= x48 (x39 x95 x3)) (and (and (= (x39 x95 x95) x71) (and (= (x39 x95 x7) x3) (and (and (and (and (= x3 (x39 x7 x95)) (and (= (x39 x7 x7) x95) (and (and (and (and (= x48 (x39 x71 x95)) (and (= x7 (x39 x71 x7)) (= x95 (x39 x71 x71)))) (= (x39 x71 x48) x71)) (= (x39 x71 x3) x3)) (= x48 (x39 x7 x71))))) (= x7 (x39 x7 x48))) (= x71 (x39 x7 x3))) (= x7 (x39 x95 x71))))) (= x95 (x39 x95 x48)))) (= (x39 x48 x71) x3))) (= x95 (x39 x48 x95))) (= (x39 x48 x48) x48)) (= (x39 x48 x3) x7))) (= (x39 x3 x7) x48))) (= x3 (x39 x3 x48))))))
(assert (not (and (= x71 (x39 x3 x3)) (and (= x3 (x39 x3 x48)) (and (= x95 (x39 x3 x95)) (and (= x7 (x39 x3 x7)) (and (and (= x95 (x39 x48 x3)) (and (and (= (x39 x48 x95) x7) (and (and (and (= (x39 x95 x3) x3) (and (and (= x71 (x39 x95 x95)) (and (= (x39 x95 x7) x48) (and (and (= (x39 x7 x3) x48) (and (= (x39 x7 x48) x7) (and (= x3 (x39 x7 x95)) (and (= x71 (x39 x7 x7)) (and (and (and (= (x39 x71 x48) x71) (and (= x48 (x39 x71 x95)) (and (= (x39 x71 x7) x95) (= x3 (x39 x71 x71))))) (= (x39 x71 x3) x7)) (= (x39 x7 x71) x95)))))) (= (x39 x95 x71) x7)))) (= x95 (x39 x95 x48)))) (= x71 (x39 x48 x71))) (= x3 (x39 x48 x7)))) (= x48 (x39 x48 x48)))) (= x48 (x39 x3 x71)))))))))
(assert (or (or (or (and (not (= (x39 (x39 x3 x95) x3) x95)) (and (not (= x95 (x39 (x39 x48 x95) x48))) (and (not (= x95 (x39 (x39 x95 x95) x95))) (and (not (= (x39 (x39 x7 x95) x7) x95)) (not (= x95 (x39 (x39 x71 x95) x71))))))) (or (and (not (= (x39 (x39 x3 x7) x3) x7)) (and (and (and (not (= x7 (x39 (x39 x71 x7) x71))) (not (= (x39 (x39 x7 x7) x7) x7))) (not (= (x39 (x39 x95 x7) x95) x7))) (not (= x7 (x39 (x39 x48 x7) x48))))) (and (not (= x71 (x39 (x39 x3 x71) x3))) (and (and (not (= (x39 (x39 x95 x71) x95) x71)) (and (not (= x71 (x39 (x39 x71 x71) x71))) (not (= (x39 (x39 x7 x71) x7) x71)))) (not (= x71 (x39 (x39 x48 x71) x48))))))) (and (and (not (= (x39 (x39 x48 x48) x48) x48)) (and (not (= x48 (x39 (x39 x95 x48) x95))) (and (not (= (x39 (x39 x71 x48) x71) x48)) (not (= x48 (x39 (x39 x7 x48) x7)))))) (not (= x48 (x39 (x39 x3 x48) x3))))) (and (and (and (and (not (= x3 (x39 (x39 x7 x3) x7))) (not (= (x39 (x39 x71 x3) x71) x3))) (not (= x3 (x39 (x39 x95 x3) x95)))) (not (= x3 (x39 (x39 x48 x3) x48)))) (not (= x3 (x39 (x39 x3 x3) x3))))))
(assert (or (and (and (and (not (= (x39 (x39 x95 x3) x3) x95)) (and (not (= x71 (x39 (x39 x71 x3) x3))) (not (= x7 (x39 (x39 x7 x3) x3))))) (not (= (x39 (x39 x48 x3) x3) x48))) (not (= (x39 (x39 x3 x3) x3) x3))) (or (or (or (and (not (= x3 (x39 (x39 x3 x71) x71))) (and (and (and (not (= x71 (x39 (x39 x71 x71) x71))) (not (= (x39 (x39 x7 x71) x71) x7))) (not (= (x39 (x39 x95 x71) x71) x95))) (not (= (x39 (x39 x48 x71) x71) x48)))) (and (not (= x3 (x39 (x39 x3 x7) x7))) (and (not (= x48 (x39 (x39 x48 x7) x7))) (and (and (not (= (x39 (x39 x71 x7) x7) x71)) (not (= x7 (x39 (x39 x7 x7) x7)))) (not (= x95 (x39 (x39 x95 x7) x7))))))) (and (not (= (x39 (x39 x3 x95) x95) x3)) (and (not (= x48 (x39 (x39 x48 x95) x95))) (and (not (= x95 (x39 (x39 x95 x95) x95))) (and (not (= x71 (x39 (x39 x71 x95) x95))) (not (= x7 (x39 (x39 x7 x95) x95)))))))) (and (and (not (= x48 (x39 (x39 x48 x48) x48))) (and (and (not (= x7 (x39 (x39 x7 x48) x48))) (not (= (x39 (x39 x71 x48) x48) x71))) (not (= x95 (x39 (x39 x95 x48) x48))))) (not (= (x39 (x39 x3 x48) x48) x3))))))
(assert (let ((x104 (x39 x7 x7)) (x107 (x39 x48 x7)) (x76 (x39 x48 x95)) (x143 (x39 x71 x7)) (x22 (x39 x71 x71)) (x133 (x39 x3 x48)) (x140 (x39 x95 x71)) (x85 (x39 x7 x48)) (x130 (x39 x95 x48)) (x135 (x39 x3 x71)) (x117 (x39 x95 x3)) (x32 (x39 x7 x3)) (x57 (x39 x3 x95)) (x102 (x39 x95 x95)) (x124 (x39 x3 x3)) (x13 (x39 x48 x3)) (x10 (x39 x71 x95)) (x72 (x39 x7 x95)) (x6 (x39 x48 x48)) (x77 (x39 x95 x7)) (x91 (x39 x71 x48)) (x42 (x39 x7 x71)) (x70 (x39 x3 x7)) (x78 (x39 x71 x3)) (x118 (x39 x48 x71))) (let ((x40 (not (= x71 x140))) (x125 (not (= x71 x85))) (x137 (not (= x135 x3))) (x61 (not (= x7 x72))) (x29 (not (= x42 x7))) (x38 (not (= x95 x57))) (x87 (not (= x42 x71))) (x122 (not (= x71 x133))) (x2 (not (= x76 x71))) (x86 (not (= x91 x48))) (x8 (not (= x104 x7))) (x132 (not (= x95 x124))) (x131 (not (= x57 x48))) (x62 (not (= x7 x78))) (x101 (not (= x57 x71))) (x14 (not (= x130 x7))) (x141 (not (= x7 x118))) (x139 (not (= x117 x71))) (x154 (not (= x72 x95))) (x18 (not (= x7 x22))) (x63 (not (= x95 x78))) (x27 (not (= x95 x76))) (x12 (not (= x10 x48))) (x111 (not (= x104 x48))) (x73 (not (= x133 x3))) (x82 (not (= x107 x71))) (x30 (not (= x7 x6))) (x79 (not (= x140 x95))) (x115 (not (= x102 x95))) (x88 (not (= x76 x48))) (x45 (not (= x22 x3))) (x90 (not (= x72 x71))) (x151 (not (= x22 x71))) (x134 (not (= x71 x135))) (x157 (not (= x107 x95))) (x106 (not (= x95 x32))) (x53 (not (= x95 x117))) (x97 (not (= x7 x76))) (x83 (not (= x22 x95))) (x156 (not (= x104 x3))) (x127 (not (= x42 x95))) (x74 (not (= x22 x48))) (x146 (not (= x71 x91))) (x120 (not (= x91 x95))) (x153 (not (= x48 x70))) (x150 (not (= x118 x3))) (x126 (not (= x102 x71))) (x51 (not (= x48 x32))) (x68 (not (= x70 x7))) (x121 (not (= x124 x7))) (x99 (not (= x95 x143))) (x94 (not (= x13 x48))) (x35 (not (= x78 x3))) (x114 (not (= x72 x48))) (x17 (not (= x71 x124))) (x33 (not (= x13 x95))) (x11 (not (= x10 x3))) (x113 (not (= x95 x6))) (x69 (not (= x107 x7))) (x4 (not (= x95 x77))) (x142 (not (= x7 x135))) (x129 (not (= x7 x85))) (x19 (not (= x48 x77))) (x49 (not (= x3 x42))) (x138 (not (= x95 x135))) (x152 (not (= x77 x7))) (x58 (not (= x71 x70))) (x128 (not (= x91 x3))) (x136 (not (= x71 x6))) (x52 (not (= x95 x104))) (x1 (not (= x3 x32))) (x81 (not (= x48 x102))) (x50 (not (= x3 x72))) (x20 (not (= x77 x3))) (x148 (not (= x107 x3))) (x66 (not (= x3 x124))) (x116 (not (= x3 x143))) (x100 (not (= x48 x124))) (x75 (not (= x10 x71))) (x65 (not (= x48 x133))) (x31 (not (= x118 x48))) (x103 (not (= x48 x130))) (x25 (not (= x70 x3))) (x9 (not (= x133 x95))) (x145 (not (= x3 x140))) (x36 (not (= x135 x48))) (x64 (not (= x7 x117))) (x46 (not (= x85 x48))) (x112 (not (= x117 x3))) (x149 (not (= x7 x102))) (x26 (not (= x48 x143))) (x67 (not (= x7 x32))) (x34 (not (= x71 x78))) (x155 (not (= x10 x95))) (x89 (not (= x95 x70))) (x92 (not (= x10 x7))) (x119 (not (= x91 x7))) (x123 (not (= x6 x48))) (x28 (not (= x3 x57))) (x80 (not (= x130 x71))) (x24 (not (= x133 x7))) (x43 (not (= x95 x130))) (x23 (not (= x140 x7))) (x44 (not (= x95 x118))) (x21 (not (= x76 x3))) (x108 (not (= x78 x48))) (x96 (not (= x71 x118))) (x93 (not (= x71 x13))) (x98 (not (= x48 x107))) (x109 (not (= x3 x102))) (x59 (not (= x7 x57))) (x5 (not (= x85 x3))) (x110 (not (= x71 x32))) (x159 (not (= x7 x143))) (x56 (not (= x85 x95))) (x147 (not (= x71 x143))) (x158 (not (= x117 x48))) (x55 (not (= x7 x13))) (x47 (not (= x71 x77))) (x16 (not (= x71 x104))) (x54 (not (= x3 x6))) (x144 (not (= x13 x3))) (x41 (not (= x48 x140))) (x105 (not (= x130 x3))) (x15 (not (= x48 x42)))) (or (and (and (and (or x73 x144) (and (or x28 x112) (and (or x137 x35) (or x1 x25)))) (or x66 x66)) (and (and (and (and (or x105 x21) (and (and (or x145 x11) (or x20 x50)) (or x109 x109))) (or x28 x112)) (and (and (or x137 x35) (and (and (and (or x45 x45) (or x116 x49)) (or x145 x11)) (or x150 x128))) (and (or x1 x25) (and (or x5 x148) (and (and (or x49 x116) (or x156 x156)) (or x50 x20)))))) (and (or x73 x144) (and (or x54 x54) (and (and (or x5 x148) (or x128 x150)) (or x21 x105)))))) (or (or (or (and (and (and (or x93 x122) (and (and (or x2 x80) (and (or x82 x125) (or x146 x96))) (or x136 x136))) (and (and (and (or x34 x134) (and (and (and (or x151 x151) (or x87 x147)) (or x40 x75)) (or x96 x146))) (and (and (and (or x47 x90) (and (or x16 x16) (or x147 x87))) (or x125 x82)) (or x58 x110))) (and (and (or x2 x80) (and (and (or x47 x90) (or x40 x75)) (or x126 x126))) (or x139 x101)))) (and (or x17 x17) (and (and (or x139 x101) (and (or x134 x34) (or x58 x110))) (or x93 x122)))) (and (and (and (and (and (and (or x141 x119) (and (and (or x18 x18) (or x29 x159)) (or x92 x23))) (or x62 x142)) (and (and (and (and (or x8 x8) (or x159 x29)) (or x152 x61)) (or x129 x69)) (or x68 x67))) (and (or x59 x64) (and (and (or x149 x149) (and (or x23 x92) (or x152 x61))) (or x97 x14)))) (and (or x55 x24) (and (and (or x97 x14) (and (or x129 x69) (or x141 x119))) (or x30 x30)))) (and (or x121 x121) (and (and (or x59 x64) (and (or x68 x67) (or x142 x62))) (or x55 x24))))) (and (and (and (or x9 x33) (and (or x53 x38) (and (or x63 x138) (or x89 x106)))) (or x132 x132)) (and (and (and (or x53 x38) (and (and (and (or x154 x4) (or x79 x155)) (or x115 x115)) (or x43 x27))) (and (and (or x138 x63) (and (and (or x155 x79) (and (or x127 x99) (or x83 x83))) (or x120 x44))) (and (or x106 x89) (and (or x56 x157) (and (and (or x52 x52) (or x127 x99)) (or x154 x4)))))) (and (or x9 x33) (and (and (and (or x120 x44) (or x56 x157)) (or x27 x43)) (or x113 x113)))))) (and (and (and (or x65 x94) (and (or x123 x123) (and (or x103 x88) (and (or x46 x98) (or x86 x31))))) (and (and (and (and (or x98 x46) (and (and (or x15 x26) (or x111 x111)) (or x114 x19))) (or x51 x153)) (and (and (or x31 x86) (and (and (or x26 x15) (or x74 x74)) (or x41 x12))) (or x36 x108))) (and (or x131 x158) (and (or x88 x103) (and (or x81 x81) (and (or x12 x41) (or x19 x114))))))) (and (and (and (or x158 x131) (and (or x51 x153) (or x108 x36))) (or x94 x65)) (or x100 x100))))))))
(assert (let ((x147 (x39 x7 x7)) (x75 (x39 x3 x3)) (x87 (x39 x71 x71)) (x16 (x39 x95 x95)) (x40 (x39 x48 x48))) (let ((x90 (= x147 x7)) (x125 (= x95 x16)) (x80 (= x75 x3)) (x151 (= x71 x87)) (x2 (= x48 x40))) (let ((x96 (or (or (= x95 x40) (or x125 (or (= x95 x147) (= x95 x87)))) (= x75 x95))) (x47 (or (= x75 x71) (or (or (= x71 x16) (or (= x71 x147) x151)) (= x71 x40)))) (x82 (or x80 (or (= x40 x3) (or (or (= x87 x3) (= x3 x147)) (= x16 x3))))) (x146 (or (= x75 x48) (or x2 (or (= x48 x16) (or (= x48 x147) (= x87 x48)))))) (x126 (or (or (or (or (= x87 x7) x90) (= x16 x7)) (= x40 x7)) (= x75 x7)))) (and (and (and (and (and (and (or (not (= (x39 x7 x48) x7)) x146) (and (and (or x126 (not x90)) (or (not (= (x39 x7 x71) x7)) x47)) (or (not (= (x39 x7 x95) x7)) x96))) (or x82 (not (= x7 (x39 x7 x3))))) (and (or (not (= x71 (x39 x71 x3))) x82) (and (or (not (= (x39 x71 x48) x71)) x146) (and (and (or (not (= (x39 x71 x7) x71)) x126) (or x47 (not x151))) (or x96 (not (= (x39 x71 x95) x71))))))) (and (and (or (not (= (x39 x95 x48) x95)) x146) (and (and (or x47 (not (= (x39 x95 x71) x95))) (or x126 (not (= (x39 x95 x7) x95)))) (or x96 (not x125)))) (or (not (= (x39 x95 x3) x95)) x82))) (and (or (not (= x48 (x39 x48 x3))) x82) (and (and (or x96 (not (= x48 (x39 x48 x95)))) (and (or (not (= x48 (x39 x48 x71))) x47) (or (not (= x48 (x39 x48 x7))) x126))) (or (not x2) x146)))) (and (and (or x146 (not (= x3 (x39 x3 x48)))) (and (and (or (not (= x3 (x39 x3 x7))) x126) (or (not (= x3 (x39 x3 x71))) x47)) (or x96 (not (= x3 (x39 x3 x95)))))) (or x82 (not x80))))))))
(check-sat)
(exit)
